100 40
6 34
31 11
20 18
27 32
4 2
34 18
31 1
18 29
10 38
37 2
2 22
38 16
9 17
2 9
18 20
10 10
9 19
12 1
34 23
26 8
40 35
5 14
29 29
38 17
34 27
13 24
36 34
21 24
2 10
32 17
7 22
29 27
15 18
21 32
21 16
20 2
2 29
40 24
16 7
21 40
31 22
35 10
21 39
24 19
11 22
39 1
32 33
36 30
33 21
23 18
3 35
23 8
21 20
15 14
22 25
25 19
2 10
8 24
35 32
32 33
11 34
27 4
1 1
31 10
5 25
14 3
7 22
7 11
29 19
13 19
1 16
17 8
5 36
21 9
25 33
1 1
6 29
7 29
28 22
9 40
32 21
9 26
16 24
13 26
3 12
39 36
13 35
13 38
30 17
11 1
36 2
33 39
23 7
35 39
29 21
16 14
9 27
18 8
5 27
12 20
